Wavelet solver with 0D boundary conditions gives incorrect results for FFT lengths 648, 675, 720.
Box of 37x37x37 works 38x38x38 gives incorrect Hartree energy in the file below:
&FORCE_EVAL
METHOD QS
&DFT
UKS T
BASIS_SET_FILE_NAME BASIS_MOLOPT
&MGRID
CUTOFF 800
REL_CUTOFF 60
&END MGRID
&QS
METHOD GPW
EPS_DEFAULT 1.0E-12
EPS_PGF_ORB 1.0E-15
&END QS
&SCF
EPS_SCF 1.0E-07
MAX_SCF 1
SCF_GUESS RESTART
&OT ON
MINIMIZER DIIS
PRECONDITIONER FULL_ALL
ENERGY_GAP 0.005
&END OT
&OUTER_SCF
EPS_SCF 1.0E-07
MAX_SCF 0
&END OUTER_SCF
&END SCF
&XC
&XC_FUNCTIONAL PBE
&END XC_FUNCTIONAL
&END XC
&POISSON
PERIODIC NONE
POISSON_SOLVER WAVELET
&END
&END DFT
&SUBSYS
&COORD
H 0.5 0.5 0.5
SCALED
&END
&CELL
ABC 37.0 37.0 37.0
PERIODIC NONE
&END CELL
&KIND H
BASIS_SET SZV-MOLOPT-GTH
POTENTIAL GTH-PBE-q1
&END
&END SUBSYS
&END FORCE_EVAL
&GLOBAL
PRINT_LEVEL MEDIUM
PROJECT testWavelet
RUN_TYPE ENERGY
&END GLOBAL
